NAME : ClusterId_1 
COMMENT : (Gillet and Johnson) 
TYPE : CVRP 
DIMENSION : 20 
EDGE_WEIGHT_TYPE : EUC_2D 
CAPACITY : 500 
NODE_COORD_SECTION 
1 -33 33 
250 -14 44 
158 -17 49 
83 -20 51 
63 -12 42 
238 -13 38 
178 -16 36 
70 -18 34 
225 -26 43 
164 -28 39 
44 -7 52 
226 -11 60 
236 -19 59 
224 -5 54 
123 -1 49 
12 -18 64 
147 1 34 
136 2 29 
124 -4 17 
119 -3 17 
DEMAND_SECTION 
1 1000
250 50
158 79
83 99
63 37
238 28
178 36
70 39
225 99
164 97
44 43
226 83
236 17
224 39
123 4
12 25
147 50
136 25
124 23
119 18
DEPOT_SECTION 
1
 -1
EOF